p cnf 23 55
a 11 22 0
e 1 2 3 4 5 6 7 8 9 10 12 13 14 15 16 17 18 19 20 21 23 0
3 1 0
3 -2 0
-1 2 -3 0
5 3 0
5 -4 0
-3 4 -5 0
-7 6 0
-7 6 0
-6 7 0
-8 -9 -10 0
8 9 -10 0
-8 9 10 0
8 -9 10 0
8 10 -11 0
-8 -10 -11 0
8 -10 11 0
-8 10 11 0
-12 11 0
-12 -8 0
-11 8 12 0
13 7 0
13 -12 0
-7 12 -13 0
-15 4 0
-15 -14 0
-4 14 15 0
16 13 0
16 -15 0
-13 15 -16 0
5 -16 -17 0
-5 16 -17 0
5 16 17 0
-5 -16 17 0
-19 1 0
-19 18 0
-1 -18 19 0
-20 18 0
-20 -4 0
-18 4 20 0
21 4 0
21 -20 0
-4 20 -21 0
-22 19 0
-22 -21 0
-19 21 22 0
17 -22 -23 0
-17 22 -23 0
17 22 23 0
-17 -22 23 0
23 -17 3 -22 19 10 0
-18 8 1 9 0
20 -5 -11 0
-3 -6 -20 17 -18 0
13 8 6 -20 2 -12 0
23 0
